(declare-const term_to_project_onto_integralized Int)
(declare-const term_to_project_onto9_integralized Int)
(declare-const term_to_project_onto3_integralized Int)
(declare-const term_to_project_onto8_integralized Int)
(declare-const term_to_project_onto6_integralized Int)
(declare-const term_to_project_onto2_integralized Int)
(declare-const term_to_project_onto1_integralized Int)
(declare-const term_to_project_onto5_integralized Int)
(declare-const term_to_project_onto4_integralized Int)
(declare-const param1@pos Int)
(declare-const term_to_project_onto0_integralized Int)
(declare-const term_to_project_onto10_integralized Int)
(declare-const term_to_project_onto7_integralized Int)
(declare-const param0@width Int)
(declare-const param1@width Int)
(declare-const param3@pos Int)
(declare-const param0@pos Int)
(declare-const param3@width Int)
(assert (exists
         ((type_err?1?1 Int) (type_err?2?2 Int) (type_err?3?3 Int)
            (type_err?4?4 Int) (type_err?5?5 Int) (type_err?6?6 Int)
            (tr?7?7 Int) (tr?8?8 Int) (phi_y?9?9 Int) (phi_x?10?10 Int)
            (tr?11?11 Int) (tr?12?12 Int) (phi_tmp?13?13 Int)
            (phi_tmp?14?14 Int) (|param3@width'?15?15| Int)
            (|param2@width'?16?16| Int) (|param1@width'?17?17| Int)
            (|param0@width'?18?18| Int) (|param3@pos'?19?19| Int)
            (|param2@pos'?20?20| Int) (|param1@pos'?21?21| Int)
            (|param0@pos'?22?22| Int) (|param3'?23?23| Int)
            (|param2'?24?24| Int) (|param1'?25?25| Int) (|param0'?26?26| Int)
            (param2@width?27?27 Int) (param2@pos?28?28 Int)
            (param3?29?29 Int) (param2?30?30 Int) (param1?31?31 Int)
            (param0?32?32 Int))
         (and (<= (+ (- param1?31?31) param0?32?32 1) 0)
                (or (and (<= (- param0?32?32) 0)
                           (or (and (<= (+ param3?29?29 (- param1?31?31)) 0)
                                      (= (- phi_tmp?14?14) 0))
                                 (and (<= (+ (- param3?29?29) param1?31?31 1) 0)
                                        (= (+ (- phi_tmp?14?14) 1) 0)))
                           (= (+ (- phi_tmp?13?13) phi_tmp?14?14) 0))
                      (and (<= (+ param0?32?32 1) 0) (= (- phi_tmp?13?13) 0)))
                (or (<= (+ phi_tmp?13?13 1) 0) (<= (+ (- phi_tmp?13?13) 1) 0))
                (or (and (<= (+ (- tr?11?11) tr?12?12 1) 0)
                           (= (+ (- phi_x?10?10) param0?32?32) 0)
                           (= (+ (- phi_y?9?9) param1?31?31 -1) 0))
                      (and (<= (+ (- tr?7?7) tr?8?8) 0)
                             (= (+ (- phi_x?10?10) param0?32?32 1) 0)
                             (= (+ (- phi_y?9?9) param1?31?31) 0)))
                (= (+ (- type_err?1?1) |param3@width'?15?15|) 0)
                (= (+ (- param2@width?27?27) |param2@width'?16?16|) 0)
                (= (+ (- type_err?2?2) |param1@width'?17?17|) 0)
                (= (+ (- type_err?3?3) |param0@width'?18?18|) 0)
                (= (+ (- type_err?4?4) |param3@pos'?19?19|) 0)
                (= (+ (- param2@pos?28?28) |param2@pos'?20?20|) 0)
                (= (+ (- type_err?5?5) |param1@pos'?21?21|) 0)
                (= (+ (- type_err?6?6) |param0@pos'?22?22|) 0)
                (= (+ |param3'?23?23| (- param3?29?29)) 0)
                (= (+ (- param2?30?30) |param2'?24?24|) 0)
                (= (+ |param1'?25?25| (- phi_y?9?9)) 0)
                (= (+ |param0'?26?26| (- phi_x?10?10)) 0)
                (= (+ term_to_project_onto10_integralized
                        (- (+ |param0'?26?26| (- param0?32?32)))) 0)
                (= (+ term_to_project_onto9_integralized
                        (- (+ |param1'?25?25| (- param1?31?31)))) 0)
                (= (+ term_to_project_onto8_integralized
                        (- (+ |param2'?24?24| (- param2?30?30)))) 0)
                (= (+ term_to_project_onto7_integralized
                        (- (+ |param3'?23?23| (- param3?29?29)))) 0)
                (= (+ term_to_project_onto6_integralized
                        (- (+ |param0@pos'?22?22| (- param0@pos)))) 0)
                (= (+ term_to_project_onto5_integralized
                        (- (+ |param1@pos'?21?21| (- param1@pos)))) 0)
                (= (+ term_to_project_onto4_integralized
                        (- (+ |param2@pos'?20?20| (- param2@pos?28?28)))) 0)
                (= (+ term_to_project_onto3_integralized
                        (- (+ |param3@pos'?19?19| (- param3@pos)))) 0)
                (= (+ term_to_project_onto2_integralized
                        (- (+ |param0@width'?18?18| (- param0@width)))) 0)
                (= (+ term_to_project_onto1_integralized
                        (- (+ |param1@width'?17?17| (- param1@width)))) 0)
                (= (+ term_to_project_onto0_integralized
                        (- (+ |param2@width'?16?16| (- param2@width?27?27)))) 0)
                (= (+ term_to_project_onto_integralized
                        (- (+ |param3@width'?15?15| (- param3@width)))) 0))))
(check-sat)